GLPSOL--GLPK LP/MIP Solver 5.0
Parameter(s) specified in the command line:
 --cpxlp --first inputs/new_tr/order/triang10_3_up_right_input.lp -o solutions/new_tr/triang10_3_up_right_input.lp
Reading problem data from 'inputs/new_tr/order/triang10_3_up_right_input.lp'...
inputs/new_tr/order/triang10_3_up_right_input.lp:17209: warning: lower bound of variable 'm_54_54' redefined
inputs/new_tr/order/triang10_3_up_right_input.lp:17209: warning: upper bound of variable 'm_54_54' redefined
16286 rows, 6106 columns, 47716 non-zeros
6106 integer variables, 5190 of which are binary
23259 lines were read
GLPK Integer Optimizer 5.0
16286 rows, 6106 columns, 47716 non-zeros
6106 integer variables, 5190 of which are binary
Preprocessing...
750 hidden packing inequaliti(es) were detected
98 hidden covering inequaliti(es) were detected
1650 constraint coefficient(s) were reduced
9707 rows, 3467 columns, 26656 non-zeros
3467 integer variables, 3412 of which are binary
Scaling...
 A: min|aij| =  1.000e+00  max|aij| =  9.800e+01  ratio =  9.800e+01
GM: min|aij| =  3.328e-01  max|aij| =  3.005e+00  ratio =  9.031e+00
EQ: min|aij| =  1.214e-01  max|aij| =  1.000e+00  ratio =  8.238e+00
2N: min|aij| =  6.250e-02  max|aij| =  1.688e+00  ratio =  2.700e+01
Constructing initial basis...
Size of triangular part is 8882
Solving LP relaxation...
GLPK Simplex Optimizer 5.0
9707 rows, 3467 columns, 26656 non-zeros
      0: obj =   2.640000000e+02 inf =   8.455e+02 (525)
Perturbing LP to avoid stalling [199]...
   2570: obj =   4.123302278e+02 inf =   6.749e-08 (0) 22
Removing LP perturbation [3262]...
*  3262: obj =   3.390000000e+02 inf =   1.382e-13 (0) 7
OPTIMAL LP SOLUTION FOUND
Integer optimization begins...
Long-step dual simplex will be used
+  3262: mip =     not found yet >=              -inf        (1; 0)
+  8475: mip =     not found yet >=   3.390000000e+02        (20; 1)
+ 16843: mip =     not found yet >=   3.390000000e+02        (41; 1)
# 25807: obj =   3.855384188e+02 inf =   0.000e+00 (2159) 77 82%
# 29136: obj =   3.897500000e+02 inf =   0.000e+00 (623) 31 99%
+ 29136: mip =     not found yet >=   3.390000000e+02        (44; 4)
+ 37301: mip =     not found yet >=   3.390000000e+02        (55; 4)
+ 43197: mip =     not found yet >=   3.390000000e+02        (62; 4)
+ 51407: mip =     not found yet >=   3.390000000e+02        (66; 4)
# 66095: obj =   3.459999995e+02 inf =   0.000e+00 (1012) 78 83%
# 67061: obj =   3.460000000e+02 inf =   0.000e+00 (0) 9 99%
+ 67061: mip =     not found yet >=   3.390000000e+02        (86; 5)
Time used: 63.7 secs.  Memory used: 15.2 Mb.
+ 74172: mip =     not found yet >=   3.390000000e+02        (102; 13)
+ 81250: mip =     not found yet >=   3.390000000e+02        (107; 14)
+ 88207: mip =     not found yet >=   3.390000000e+02        (170; 34)
+ 95664: mip =     not found yet >=   3.390000000e+02        (214; 52)
+102377: mip =     not found yet >=   3.390000000e+02        (251; 71)
+109495: mip =     not found yet >=   3.390000000e+02        (276; 85)
+116455: mip =     not found yet >=   3.390000000e+02        (305; 104)
+124648: mip =     not found yet >=   3.390000000e+02        (321; 110)
+133803: mip =     not found yet >=   3.390000000e+02        (338; 116)
+141309: mip =     not found yet >=   3.390000000e+02        (345; 117)
Time used: 123.7 secs.  Memory used: 19.5 Mb.
+151828: mip =     not found yet >=   3.390000000e+02        (364; 129)
+161035: mip =     not found yet >=   3.390000000e+02        (389; 140)
Warning: numerical instability (dual simplex, phase II)
+171660: mip =     not found yet >=   3.390000000e+02        (417; 149)
Warning: basis matrix is ill-conditioned (cond = 1.02e+13)
+178378: mip =     not found yet >=   3.390000000e+02        (435; 161)
+179351: >>>>>   4.600000000e+02 >=   3.390000000e+02  26.3% (454; 161)
+186905: mip =   4.600000000e+02 >=   3.390000000e+02  26.3% (459; 192)
+187954: >>>>>   3.950000000e+02 >=   3.390000000e+02  14.2% (477; 192)
+194830: mip =   3.950000000e+02 >=   3.390000000e+02  14.2% (431; 352)
+194988: >>>>>   3.890000000e+02 >=   3.390000000e+02  12.9% (444; 352)
+203412: mip =   3.890000000e+02 >=   3.390000000e+02  12.9% (350; 598)
+211260: mip =   3.890000000e+02 >=   3.390000000e+02  12.9% (364; 622)
+219558: mip =   3.890000000e+02 >=   3.390000000e+02  12.9% (369; 629)
+227338: mip =   3.890000000e+02 >=   3.390000000e+02  12.9% (375; 636)
Time used: 184.3 secs.  Memory used: 21.8 Mb.
+237606: mip =   3.890000000e+02 >=   3.390000000e+02  12.9% (381; 653)
+245283: mip =   3.890000000e+02 >=   3.390000000e+02  12.9% (387; 655)
+254316: mip =   3.890000000e+02 >=   3.390000000e+02  12.9% (388; 660)
+262626: mip =   3.890000000e+02 >=   3.390000000e+02  12.9% (392; 665)
+270564: mip =   3.890000000e+02 >=   3.390000000e+02  12.9% (397; 667)
+277748: mip =   3.890000000e+02 >=   3.390000000e+02  12.9% (399; 672)
+286612: mip =   3.890000000e+02 >=   3.390000000e+02  12.9% (403; 679)
+296416: mip =   3.890000000e+02 >=   3.390000000e+02  12.9% (421; 697)
+304140: mip =   3.890000000e+02 >=   3.390000000e+02  12.9% (435; 708)
+311422: mip =   3.890000000e+02 >=   3.390000000e+02  12.9% (435; 714)
+318678: mip =   3.890000000e+02 >=   3.390000000e+02  12.9% (441; 717)
Time used: 244.4 secs.  Memory used: 24.3 Mb.
+327455: mip =   3.890000000e+02 >=   3.390000000e+02  12.9% (447; 724)
+335395: mip =   3.890000000e+02 >=   3.390000000e+02  12.9% (452; 732)
+345449: mip =   3.890000000e+02 >=   3.390000000e+02  12.9% (454; 750)
+353475: mip =   3.890000000e+02 >=   3.390000000e+02  12.9% (455; 755)
+362531: mip =   3.890000000e+02 >=   3.390000000e+02  12.9% (455; 762)
+369445: mip =   3.890000000e+02 >=   3.390000000e+02  12.9% (477; 774)
+377300: mip =   3.890000000e+02 >=   3.390000000e+02  12.9% (489; 806)
+385121: mip =   3.890000000e+02 >=   3.390000000e+02  12.9% (506; 827)
+393973: mip =   3.890000000e+02 >=   3.390000000e+02  12.9% (520; 839)
+401797: mip =   3.890000000e+02 >=   3.390000000e+02  12.9% (532; 849)
Time used: 304.8 secs.  Memory used: 27.1 Mb.
+409420: mip =   3.890000000e+02 >=   3.390000000e+02  12.9% (545; 858)
+417428: mip =   3.890000000e+02 >=   3.390000000e+02  12.9% (560; 870)
+425167: mip =   3.890000000e+02 >=   3.390000000e+02  12.9% (572; 881)
+434492: mip =   3.890000000e+02 >=   3.390000000e+02  12.9% (579; 905)
+441572: mip =   3.890000000e+02 >=   3.390000000e+02  12.9% (584; 918)
+452412: mip =   3.890000000e+02 >=   3.390000000e+02  12.9% (591; 928)
+460321: mip =   3.890000000e+02 >=   3.390000000e+02  12.9% (598; 941)
+468148: mip =   3.890000000e+02 >=   3.390000000e+02  12.9% (604; 977)
+475428: mip =   3.890000000e+02 >=   3.390000000e+02  12.9% (617; 980)
+482829: mip =   3.890000000e+02 >=   3.390000000e+02  12.9% (635; 1010)
+490625: mip =   3.890000000e+02 >=   3.390000000e+02  12.9% (643; 1051)
Time used: 365.6 secs.  Memory used: 31.2 Mb.
+498407: mip =   3.890000000e+02 >=   3.390000000e+02  12.9% (651; 1062)
+505723: mip =   3.890000000e+02 >=   3.390000000e+02  12.9% (665; 1068)
+513637: mip =   3.890000000e+02 >=   3.390000000e+02  12.9% (674; 1091)
+521897: mip =   3.890000000e+02 >=   3.390000000e+02  12.9% (696; 1116)
+531468: mip =   3.890000000e+02 >=   3.390000000e+02  12.9% (710; 1140)
+540244: mip =   3.890000000e+02 >=   3.390000000e+02  12.9% (717; 1154)
+547719: mip =   3.890000000e+02 >=   3.390000000e+02  12.9% (722; 1167)
+557100: mip =   3.890000000e+02 >=   3.390000000e+02  12.9% (732; 1177)
+565432: mip =   3.890000000e+02 >=   3.390000000e+02  12.9% (748; 1219)
+574978: mip =   3.890000000e+02 >=   3.390000000e+02  12.9% (759; 1237)
+582397: mip =   3.890000000e+02 >=   3.390000000e+02  12.9% (765; 1264)
Time used: 426.1 secs.  Memory used: 35.0 Mb.
+590363: mip =   3.890000000e+02 >=   3.390000000e+02  12.9% (774; 1271)
+598026: mip =   3.890000000e+02 >=   3.390000000e+02  12.9% (776; 1279)
+606512: mip =   3.890000000e+02 >=   3.390000000e+02  12.9% (779; 1283)
+615201: mip =   3.890000000e+02 >=   3.390000000e+02  12.9% (786; 1299)
+622476: mip =   3.890000000e+02 >=   3.390000000e+02  12.9% (794; 1308)
+629347: mip =   3.890000000e+02 >=   3.390000000e+02  12.9% (798; 1311)
+636573: mip =   3.890000000e+02 >=   3.390000000e+02  12.9% (807; 1317)
+645624: mip =   3.890000000e+02 >=   3.390000000e+02  12.9% (818; 1326)
+654584: mip =   3.890000000e+02 >=   3.390000000e+02  12.9% (832; 1338)
+661899: mip =   3.890000000e+02 >=   3.390000000e+02  12.9% (839; 1348)
+670247: mip =   3.890000000e+02 >=   3.390000000e+02  12.9% (852; 1371)
Time used: 488.4 secs.  Memory used: 38.1 Mb.
+679723: mip =   3.890000000e+02 >=   3.390000000e+02  12.9% (867; 1388)
+688441: mip =   3.890000000e+02 >=   3.390000000e+02  12.9% (873; 1407)
+695609: mip =   3.890000000e+02 >=   3.390000000e+02  12.9% (892; 1422)
+702943: mip =   3.890000000e+02 >=   3.390000000e+02  12.9% (901; 1434)
+711792: mip =   3.890000000e+02 >=   3.390000000e+02  12.9% (907; 1452)
+719328: mip =   3.890000000e+02 >=   3.390000000e+02  12.9% (910; 1457)
+728509: mip =   3.890000000e+02 >=   3.390000000e+02  12.9% (914; 1470)
+736652: mip =   3.890000000e+02 >=   3.390000000e+02  12.9% (926; 1483)
+746337: mip =   3.890000000e+02 >=   3.390000000e+02  12.9% (930; 1490)
+753146: mip =   3.890000000e+02 >=   3.390000000e+02  12.9% (954; 1517)
+760499: mip =   3.890000000e+02 >=   3.390000000e+02  12.9% (974; 1542)
Time used: 550.9 secs.  Memory used: 41.9 Mb.
+767964: mip =   3.890000000e+02 >=   3.390000000e+02  12.9% (975; 1564)
+779678: mip =   3.890000000e+02 >=   3.390000000e+02  12.9% (985; 1576)
+786779: mip =   3.890000000e+02 >=   3.390000000e+02  12.9% (993; 1578)
+799329: mip =   3.890000000e+02 >=   3.390000000e+02  12.9% (1011; 1594)
+808980: mip =   3.890000000e+02 >=   3.390000000e+02  12.9% (1014; 1598)
+820040: mip =   3.890000000e+02 >=   3.390000000e+02  12.9% (1017; 1600)
+827053: mip =   3.890000000e+02 >=   3.390000000e+02  12.9% (1024; 1602)
+833473: mip =   3.890000000e+02 >=   3.390000000e+02  12.9% (1024; 1602)
+844338: mip =   3.890000000e+02 >=   3.390000000e+02  12.9% (1033; 1605)
Time used: 612.0 secs.  Memory used: 43.4 Mb.
+853852: mip =   3.890000000e+02 >=   3.390000000e+02  12.9% (1034; 1607)
+861840: mip =   3.890000000e+02 >=   3.390000000e+02  12.9% (1043; 1620)
+872374: mip =   3.890000000e+02 >=   3.390000000e+02  12.9% (1058; 1625)
+879487: mip =   3.890000000e+02 >=   3.390000000e+02  12.9% (1064; 1627)
+887313: mip =   3.890000000e+02 >=   3.390000000e+02  12.9% (1071; 1633)
+894025: mip =   3.890000000e+02 >=   3.390000000e+02  12.9% (1078; 1638)
+904461: mip =   3.890000000e+02 >=   3.390000000e+02  12.9% (1082; 1641)
+914060: mip =   3.890000000e+02 >=   3.390000000e+02  12.9% (1083; 1645)
+922615: mip =   3.890000000e+02 >=   3.390000000e+02  12.9% (1086; 1647)
+932042: mip =   3.890000000e+02 >=   3.390000000e+02  12.9% (1098; 1670)
Time used: 673.3 secs.  Memory used: 46.0 Mb.
+942512: mip =   3.890000000e+02 >=   3.390000000e+02  12.9% (1103; 1676)
+949880: mip =   3.890000000e+02 >=   3.390000000e+02  12.9% (1106; 1693)
+957362: mip =   3.890000000e+02 >=   3.390000000e+02  12.9% (1110; 1695)
+966362: mip =   3.890000000e+02 >=   3.390000000e+02  12.9% (1120; 1700)
+977759: mip =   3.890000000e+02 >=   3.390000000e+02  12.9% (1125; 1711)
+985324: mip =   3.890000000e+02 >=   3.390000000e+02  12.9% (1140; 1719)
+995045: mip =   3.890000000e+02 >=   3.390000000e+02  12.9% (1148; 1729)
+1004794: mip =   3.890000000e+02 >=   3.390000000e+02  12.9% (1152; 1740)
+1011999: mip =   3.890000000e+02 >=   3.390000000e+02  12.9% (1157; 1743)
Time used: 733.3 secs.  Memory used: 48.4 Mb.
+1023679: mip =   3.890000000e+02 >=   3.390000000e+02  12.9% (1177; 1776)
+1035046: mip =   3.890000000e+02 >=   3.390000000e+02  12.9% (1187; 1819)
+1042463: mip =   3.890000000e+02 >=   3.390000000e+02  12.9% (1206; 1829)
+1050758: mip =   3.890000000e+02 >=   3.390000000e+02  12.9% (1219; 1838)
+1057936: mip =   3.890000000e+02 >=   3.390000000e+02  12.9% (1222; 1854)
+1064652: mip =   3.890000000e+02 >=   3.390000000e+02  12.9% (1226; 1859)
+1071395: mip =   3.890000000e+02 >=   3.390000000e+02  12.9% (1229; 1863)
Warning: numerical instability (dual simplex, phase I)
Warning: numerical instability (dual simplex, phase II)
Warning: numerical instability (dual simplex, phase II)
Warning: numerical instability (dual simplex, phase II)
Warning: numerical instability (dual simplex, phase II)
Warning: numerical instability (dual simplex, phase II)
Warning: numerical instability (dual simplex, phase II)
#1092121: obj =   3.377401974e+02 inf =   2.312e-15 (871) 130 19%
Warning: numerical instability (dual simplex, phase II)
 1093053: sum =   0.000000000e+00 inf =   0.000e+00 (0) 8 3%
#1093912: obj =   3.402401696e+02 inf =   3.075e-07 (0) 8 57%
+1093912: mip =   3.890000000e+02 >=   3.390000000e+02  12.9% (1235; 1866)
Time used: 793.3 secs.  Memory used: 50.5 Mb.
+1101601: mip =   3.890000000e+02 >=   3.390000000e+02  12.9% (1245; 1877)
+1108477: mip =   3.890000000e+02 >=   3.390000000e+02  12.9% (1251; 1887)
+1115640: mip =   3.890000000e+02 >=   3.390000000e+02  12.9% (1251; 1890)
+1122910: mip =   3.890000000e+02 >=   3.390000000e+02  12.9% (1261; 1895)
+1132203: mip =   3.890000000e+02 >=   3.390000000e+02  12.9% (1273; 1908)
+1141174: mip =   3.890000000e+02 >=   3.390000000e+02  12.9% (1273; 1910)
+1149341: mip =   3.890000000e+02 >=   3.390000000e+02  12.9% (1284; 1912)
+1158023: mip =   3.890000000e+02 >=   3.390000000e+02  12.9% (1282; 1917)
+1166830: mip =   3.890000000e+02 >=   3.390000000e+02  12.9% (1290; 1928)
+1177858: mip =   3.890000000e+02 >=   3.390000000e+02  12.9% (1303; 1938)
Time used: 854.5 secs.  Memory used: 53.1 Mb.
+1185106: mip =   3.890000000e+02 >=   3.390000000e+02  12.9% (1313; 1943)
+1193545: mip =   3.890000000e+02 >=   3.390000000e+02  12.9% (1314; 1952)
+1201219: mip =   3.890000000e+02 >=   3.390000000e+02  12.9% (1317; 1954)
+1208359: mip =   3.890000000e+02 >=   3.390000000e+02  12.9% (1322; 1956)
+1215628: mip =   3.890000000e+02 >=   3.390000000e+02  12.9% (1327; 1957)
+1222164: mip =   3.890000000e+02 >=   3.390000000e+02  12.9% (1326; 1967)
+1230453: mip =   3.890000000e+02 >=   3.390000000e+02  12.9% (1335; 1987)
+1237100: mip =   3.890000000e+02 >=   3.390000000e+02  12.9% (1331; 2003)
+1248324: mip =   3.890000000e+02 >=   3.390000000e+02  12.9% (1346; 2019)
+1255223: mip =   3.890000000e+02 >=   3.390000000e+02  12.9% (1349; 2028)
Time used: 914.5 secs.  Memory used: 55.4 Mb.
+1265835: mip =   3.890000000e+02 >=   3.390000000e+02  12.9% (1369; 2047)
+1274172: mip =   3.890000000e+02 >=   3.390000000e+02  12.9% (1377; 2051)
+1281478: mip =   3.890000000e+02 >=   3.390000000e+02  12.9% (1378; 2056)
+1288933: mip =   3.890000000e+02 >=   3.390000000e+02  12.9% (1395; 2070)
+1301268: mip =   3.890000000e+02 >=   3.390000000e+02  12.9% (1400; 2072)
+1312632: mip =   3.890000000e+02 >=   3.390000000e+02  12.9% (1405; 2078)
+1320344: mip =   3.890000000e+02 >=   3.390000000e+02  12.9% (1408; 2085)
+1327168: mip =   3.890000000e+02 >=   3.390000000e+02  12.9% (1415; 2094)
+1335306: mip =   3.890000000e+02 >=   3.390000000e+02  12.9% (1422; 2108)
Time used: 975.5 secs.  Memory used: 58.3 Mb.
+1342224: mip =   3.890000000e+02 >=   3.390000000e+02  12.9% (1432; 2113)
+1350023: mip =   3.890000000e+02 >=   3.390000000e+02  12.9% (1440; 2127)
+1357232: mip =   3.890000000e+02 >=   3.390000000e+02  12.9% (1445; 2132)
+1365711: mip =   3.890000000e+02 >=   3.390000000e+02  12.9% (1455; 2135)
+1372085: mip =   3.890000000e+02 >=   3.390000000e+02  12.9% (1457; 2145)
Warning: numerical instability (dual simplex, phase II)
Warning: numerical instability (dual simplex, phase II)
Warning: numerical instability (dual simplex, phase II)
Warning: numerical instability (dual simplex, phase II)
Warning: numerical instability (dual simplex, phase II)
Warning: numerical instability (dual simplex, phase II)
Warning: numerical instability (dual simplex, phase II)
Warning: numerical instability (dual simplex, phase II)
Warning: numerical instability (dual simplex, phase II)
Warning: numerical instability (dual simplex, phase II)
Warning: dual simplex failed due to excessive numerical instability
+1385398: mip =   3.890000000e+02 >=   3.390000000e+02  12.9% (1462; 2150)
+1394636: mip =   3.890000000e+02 >=   3.390000000e+02  12.9% (1468; 2161)
+1401696: mip =   3.890000000e+02 >=   3.390000000e+02  12.9% (1468; 2165)
Warning: numerical instability (dual simplex, phase II)
+1408318: mip =   3.890000000e+02 >=   3.390000000e+02  12.9% (1470; 2166)
+1416213: mip =   3.890000000e+02 >=   3.390000000e+02  12.9% (1479; 2179)
+1424886: mip =   3.890000000e+02 >=   3.390000000e+02  12.9% (1487; 2200)
Time used: 1037.5 secs.  Memory used: 60.7 Mb.
+1435380: mip =   3.890000000e+02 >=   3.390000000e+02  12.9% (1488; 2205)
+1443533: mip =   3.890000000e+02 >=   3.390000000e+02  12.9% (1494; 2209)
+1450773: mip =   3.890000000e+02 >=   3.390000000e+02  12.9% (1508; 2227)
+1458526: mip =   3.890000000e+02 >=   3.390000000e+02  12.9% (1511; 2229)
+1465323: mip =   3.890000000e+02 >=   3.390000000e+02  12.9% (1512; 2231)
+1472547: mip =   3.890000000e+02 >=   3.390000000e+02  12.9% (1516; 2246)
+1482117: mip =   3.890000000e+02 >=   3.390000000e+02  12.9% (1513; 2256)
+1490596: mip =   3.890000000e+02 >=   3.390000000e+02  12.9% (1517; 2259)
+1497550: mip =   3.890000000e+02 >=   3.390000000e+02  12.9% (1540; 2274)
+1505360: mip =   3.890000000e+02 >=   3.390000000e+02  12.9% (1563; 2285)
Time used: 1098.5 secs.  Memory used: 62.9 Mb.
+1512685: mip =   3.890000000e+02 >=   3.390000000e+02  12.9% (1629; 2299)
+1519126: mip =   3.890000000e+02 >=   3.390000000e+02  12.9% (1646; 2310)
+1524798: >>>>>   3.850000000e+02 >=   3.390000000e+02  11.9% (1689; 2322)
+1531687: mip =   3.850000000e+02 >=   3.390000000e+02  11.9% (1674; 2468)
+1531800: >>>>>   3.640000000e+02 >=   3.390000000e+02   6.9% (1680; 2468)
+1532765: >>>>>   3.630000000e+02 >=   3.390000000e+02   6.6% (979; 4221)
+1540576: mip =   3.630000000e+02 >=   3.390000000e+02   6.6% (929; 4478)
+1548179: mip =   3.630000000e+02 >=   3.390000000e+02   6.6% (933; 4515)
+1556213: mip =   3.630000000e+02 >=   3.390000000e+02   6.6% (941; 4602)
+1563809: mip =   3.630000000e+02 >=   3.390000000e+02   6.6% (942; 4656)
+1571489: mip =   3.630000000e+02 >=   3.390000000e+02   6.6% (940; 4700)
+1578736: mip =   3.630000000e+02 >=   3.390000000e+02   6.6% (943; 4722)
+1585895: mip =   3.630000000e+02 >=   3.390000000e+02   6.6% (942; 4733)
Time used: 1158.6 secs.  Memory used: 64.7 Mb.
+1593794: mip =   3.630000000e+02 >=   3.390000000e+02   6.6% (945; 4762)
+1600999: mip =   3.630000000e+02 >=   3.390000000e+02   6.6% (943; 4802)
+1607908: mip =   3.630000000e+02 >=   3.390000000e+02   6.6% (944; 4845)
+1614752: mip =   3.630000000e+02 >=   3.390000000e+02   6.6% (951; 4880)
+1621330: mip =   3.630000000e+02 >=   3.390000000e+02   6.6% (950; 4888)
+1628915: mip =   3.630000000e+02 >=   3.390000000e+02   6.6% (989; 4921)
+1637409: mip =   3.630000000e+02 >=   3.390000000e+02   6.6% (990; 4958)
+1645107: mip =   3.630000000e+02 >=   3.390000000e+02   6.6% (990; 5035)
+1652419: mip =   3.630000000e+02 >=   3.390000000e+02   6.6% (986; 5077)
+1660011: mip =   3.630000000e+02 >=   3.390000000e+02   6.6% (992; 5160)
+1667538: mip =   3.630000000e+02 >=   3.390000000e+02   6.6% (995; 5222)
+1675618: mip =   3.630000000e+02 >=   3.390000000e+02   6.6% (996; 5232)
Time used: 1218.6 secs.  Memory used: 64.7 Mb.
+1682982: mip =   3.630000000e+02 >=   3.390000000e+02   6.6% (999; 5254)
+1693270: mip =   3.630000000e+02 >=   3.390000000e+02   6.6% (997; 5278)
+1700508: mip =   3.630000000e+02 >=   3.390000000e+02   6.6% (997; 5304)
+1708016: mip =   3.630000000e+02 >=   3.390000000e+02   6.6% (1001; 5316)
+1715938: mip =   3.630000000e+02 >=   3.390000000e+02   6.6% (1002; 5395)
+1723297: mip =   3.630000000e+02 >=   3.390000000e+02   6.6% (1007; 5411)
+1733625: mip =   3.630000000e+02 >=   3.390000000e+02   6.6% (1005; 5459)
+1740263: mip =   3.630000000e+02 >=   3.390000000e+02   6.6% (1014; 5497)
+1746952: mip =   3.630000000e+02 >=   3.390000000e+02   6.6% (1012; 5551)
+1753781: mip =   3.630000000e+02 >=   3.390000000e+02   6.6% (1012; 5566)
+1761295: mip =   3.630000000e+02 >=   3.390000000e+02   6.6% (1016; 5616)
Time used: 1278.7 secs.  Memory used: 64.7 Mb.
+1768618: mip =   3.630000000e+02 >=   3.390000000e+02   6.6% (1020; 5628)
+1775767: mip =   3.630000000e+02 >=   3.390000000e+02   6.6% (1016; 5646)
+1786297: mip =   3.630000000e+02 >=   3.390000000e+02   6.6% (1017; 5675)
+1796161: mip =   3.630000000e+02 >=   3.390000000e+02   6.6% (1021; 5717)
+1803241: mip =   3.630000000e+02 >=   3.390000000e+02   6.6% (1019; 5739)
+1811930: mip =   3.630000000e+02 >=   3.390000000e+02   6.6% (1020; 5767)
+1819821: mip =   3.630000000e+02 >=   3.390000000e+02   6.6% (1025; 5826)
+1827559: mip =   3.630000000e+02 >=   3.390000000e+02   6.6% (1030; 5858)
+1835509: mip =   3.630000000e+02 >=   3.390000000e+02   6.6% (1027; 5906)
+1842768: mip =   3.630000000e+02 >=   3.390000000e+02   6.6% (1030; 5919)
+1850294: mip =   3.630000000e+02 >=   3.390000000e+02   6.6% (1031; 5925)
Time used: 1340.0 secs.  Memory used: 64.7 Mb.
+1860361: mip =   3.630000000e+02 >=   3.390000000e+02   6.6% (1030; 5937)
+1868648: mip =   3.630000000e+02 >=   3.390000000e+02   6.6% (1030; 5955)
+1875760: mip =   3.630000000e+02 >=   3.390000000e+02   6.6% (1036; 6016)
+1882632: mip =   3.630000000e+02 >=   3.390000000e+02   6.6% (1032; 6072)
+1891940: mip =   3.630000000e+02 >=   3.390000000e+02   6.6% (1034; 6081)
+1899450: mip =   3.630000000e+02 >=   3.390000000e+02   6.6% (1033; 6133)
+1906540: mip =   3.630000000e+02 >=   3.390000000e+02   6.6% (1039; 6143)
+1914152: mip =   3.630000000e+02 >=   3.390000000e+02   6.6% (1041; 6153)
+1921445: mip =   3.630000000e+02 >=   3.390000000e+02   6.6% (1048; 6164)
+1929847: mip =   3.630000000e+02 >=   3.390000000e+02   6.6% (1048; 6184)
Time used: 1401.0 secs.  Memory used: 64.7 Mb.
+1938899: mip =   3.630000000e+02 >=   3.390000000e+02   6.6% (1049; 6210)
+1945936: mip =   3.630000000e+02 >=   3.390000000e+02   6.6% (1047; 6229)
+1954426: mip =   3.630000000e+02 >=   3.390000000e+02   6.6% (1046; 6234)
+1964562: mip =   3.630000000e+02 >=   3.390000000e+02   6.6% (1050; 6267)
+1972037: mip =   3.630000000e+02 >=   3.390000000e+02   6.6% (1056; 6299)
+1980584: mip =   3.630000000e+02 >=   3.390000000e+02   6.6% (1055; 6331)
+1988960: mip =   3.630000000e+02 >=   3.390000000e+02   6.6% (1058; 6349)
+1996649: mip =   3.630000000e+02 >=   3.390000000e+02   6.6% (1062; 6365)
+2003549: mip =   3.630000000e+02 >=   3.390000000e+02   6.6% (1053; 6426)
+2012886: mip =   3.630000000e+02 >=   3.390000000e+02   6.6% (1061; 6439)
Time used: 1461.1 secs.  Memory used: 64.7 Mb.
+2022885: mip =   3.630000000e+02 >=   3.390000000e+02   6.6% (1060; 6483)
+2031180: mip =   3.630000000e+02 >=   3.390000000e+02   6.6% (1065; 6512)
+2038003: mip =   3.630000000e+02 >=   3.390000000e+02   6.6% (1064; 6541)
+2045585: mip =   3.630000000e+02 >=   3.390000000e+02   6.6% (1065; 6565)
+2054406: mip =   3.630000000e+02 >=   3.390000000e+02   6.6% (1064; 6584)
+2061736: mip =   3.630000000e+02 >=   3.390000000e+02   6.6% (1069; 6616)
+2068871: mip =   3.630000000e+02 >=   3.390000000e+02   6.6% (1071; 6661)
+2076396: mip =   3.630000000e+02 >=   3.390000000e+02   6.6% (1075; 6704)
Warning: numerical instability (dual simplex, phase II)
Warning: numerical instability (dual simplex, phase II)
Warning: numerical instability (dual simplex, phase II)
#2092741: obj =   3.464210526e+02 inf =   0.000e+00 (920) 121 28%
Warning: numerical instability (dual simplex, phase II)
 2093270: sum =   0.000000000e+00 inf =   1.851e-21 (0) 6 13%
Warning: numerical instability (dual simplex, phase II)
 2093508: sum =   0.000000000e+00 inf =   0.000e+00 (0) 2 13%
Warning: numerical instability (dual simplex, phase II)
 2094540: sum =   0.000000000e+00 inf =   1.141e-17 (0) 9 33%
Warning: numerical instability (dual simplex, phase II)
#2096167: obj =   3.477528136e+02 inf =   5.242e-07 (0) 14 12%
+2096167: mip =   3.630000000e+02 >=   3.390000000e+02   6.6% (1071; 6729)
Time used: 1521.2 secs.  Memory used: 64.7 Mb.
+2103919: mip =   3.630000000e+02 >=   3.390000000e+02   6.6% (1069; 6755)
+2110191: mip =   3.630000000e+02 >=   3.390000000e+02   6.6% (1072; 6773)
+2118473: mip =   3.630000000e+02 >=   3.390000000e+02   6.6% (1073; 6781)
+2125900: mip =   3.630000000e+02 >=   3.390000000e+02   6.6% (1078; 6877)
+2133681: mip =   3.630000000e+02 >=   3.390000000e+02   6.6% (1083; 6892)
+2141148: mip =   3.630000000e+02 >=   3.390000000e+02   6.6% (1082; 6905)
+2148972: mip =   3.630000000e+02 >=   3.390000000e+02   6.6% (1082; 6914)
+2156304: mip =   3.630000000e+02 >=   3.390000000e+02   6.6% (1084; 6953)
+2163301: mip =   3.630000000e+02 >=   3.390000000e+02   6.6% (1081; 6964)
+2172353: mip =   3.630000000e+02 >=   3.390000000e+02   6.6% (1086; 6978)
+2179813: mip =   3.630000000e+02 >=   3.390000000e+02   6.6% (1086; 6982)
+2187403: mip =   3.630000000e+02 >=   3.390000000e+02   6.6% (1087; 6998)
Time used: 1583.6 secs.  Memory used: 64.7 Mb.
+2196324: mip =   3.630000000e+02 >=   3.390000000e+02   6.6% (1085; 7033)
+2204101: mip =   3.630000000e+02 >=   3.390000000e+02   6.6% (1085; 7037)
+2211894: mip =   3.630000000e+02 >=   3.390000000e+02   6.6% (1086; 7060)
+2215075: >>>>>   3.390000000e+02 >=   3.390000000e+02   0.0% (1128; 7073)
+2215075: mip =   3.390000000e+02 >=     tree is empty   0.0% (0; 11023)
INTEGER OPTIMAL SOLUTION FOUND
Time used:   1607.9 secs
Memory used: 67.1 Mb (70322567 bytes)
Writing MIP solution to 'solutions/new_tr/triang10_3_up_right_input.lp'...
